comment
1.00
 15.000000000000	  0.000000000000	  0.000000000000
  0.000000000000	 35.653095073008	  0.000000000000
  0.000000000000	  0.000000000000	  3.974690000000
Ge H
12 14
Direct
 -0.024430000000	 -0.257457405787	  0.000000000000
  0.024430000000	 -0.225275230064	  0.500000000000
 -0.024430000000	 -0.160910878617	  0.500000000000
  0.024430000000	 -0.128728702894	  0.000000000000
 -0.024430000000	 -0.064364351447	  0.000000000000
  0.024430000000	 -0.032182175723	  0.500000000000
 -0.024430000000	  0.032182175723	  0.500000000000
  0.024430000000	  0.064364351447	  0.000000000000
 -0.024430000000	  0.128728702894	  0.000000000000
  0.024430000000	  0.160910878617	  0.500000000000
 -0.024430000000	  0.225275230064	  0.500000000000
  0.024430000000	  0.257457405787	  0.000000000000
 -0.127800000000	 -0.257457405787	  0.000000000000
  0.127800000000	 -0.225275230064	  0.500000000000
 -0.127800000000	 -0.160910878617	  0.500000000000
  0.127800000000	 -0.128728702894	  0.000000000000
 -0.127800000000	 -0.064364351447	  0.000000000000
  0.127800000000	 -0.032182175723	  0.500000000000
 -0.127800000000	  0.032182175723	  0.500000000000
  0.127800000000	  0.064364351447	  0.000000000000
 -0.127800000000	  0.128728702894	  0.000000000000
  0.127800000000	  0.160910878617	  0.500000000000
 -0.127800000000	  0.225275230064	  0.500000000000
  0.127800000000	  0.257457405787	  0.000000000000
  0.000000000000	 -0.291115072746	  0.000000000000
  0.000000000000	  0.291115072746	  0.000000000000
